828361
0,47,86,75,37,87,49,35,98,79,67,12,62,71,54,43,90,52,7,88,84,2,4,63,26,1,96,41,34,82,14,15,81,57,60,66,45,33,70,27,10,22,97,53,64,51,42,23,89,58,18,11,16,25,93,39,28,78,50,77,24,72,21,83,91,38,13,80,85,44,3,6,65,94,46,56,32,8,19,20,95,29,76,40,5,74,68,17,55,9,48,92,61,30,59,31,69,73,36